ilp_joint_2/output/regeneration_ilp.lp
Maximize
  8.3296619348077749e-04 Z_652_0_0 + 0.00567867129337507 Z_652_0_1
   + 0.4779323297290402 Z_652_0_2 + 0.00316423601188032 Z_652_0_3
   + 0.00357606208054534 Z_652_0_4 + 0.00527145348351182 Z_301_0_0
   + 0.00419790651342994 Z_301_0_1 + 0.3472057089011698 Z_301_0_2
   + 0.00795014353388401 Z_301_0_3 + 0.0078658431015437 Z_301_0_4
Subject To
 constraint1_6520: Z_652_0_0 + Z_652_0_1 + Z_652_0_2 + Z_652_0_3
   + Z_652_0_4 <= 1
 constraint1_3010: Z_301_0_0 + Z_301_0_1 + Z_301_0_2 + Z_301_0_3
   + Z_301_0_4 <= 1
 constraint2_6520: Z_652_0_0 <= 1
 constraint2_6521: Z_652_0_1 <= 1
 constraint2_6522: Z_652_0_2 <= 1
 constraint2_6523: Z_652_0_3 <= 1
 constraint2_6524: Z_652_0_4 <= 1
 constraint2_3010: Z_301_0_0 <= 1
 constraint2_3011: Z_301_0_1 <= 1
 constraint2_3012: Z_301_0_2 <= 1
 constraint2_3013: Z_301_0_3 <= 1
 constraint2_3014: Z_301_0_4 <= 1
Bounds
Binaries
 Z_652_0_0 Z_652_0_1 Z_652_0_2 Z_652_0_3 Z_652_0_4 Z_301_0_0 Z_301_0_1
 Z_301_0_2 Z_301_0_3 Z_301_0_4
End
