ilp_joint_2/output/regeneration_ilp.mps
NAME regeneration_srl_ilp
* Max problem is converted into Min one
ROWS
 N  OBJ
 L  constraint1_6520
 L  constraint1_3010
 L  constraint2_6520
 L  constraint2_6521
 L  constraint2_6522
 L  constraint2_6523
 L  constraint2_6524
 L  constraint2_3010
 L  constraint2_3011
 L  constraint2_3012
 L  constraint2_3013
 L  constraint2_3014
COLUMNS
    MARKER    'MARKER'                 'INTORG'
    Z_652_0_0  OBJ       -8.3296619348077749e-04
    Z_652_0_0  constraint1_6520  1
    Z_652_0_0  constraint2_6520  1
    Z_652_0_1  OBJ       -5.6786712933750705e-03
    Z_652_0_1  constraint1_6520  1
    Z_652_0_1  constraint2_6521  1
    Z_652_0_2  OBJ       -4.7793232972904015e-01
    Z_652_0_2  constraint1_6520  1
    Z_652_0_2  constraint2_6522  1
    Z_652_0_3  OBJ       -3.1642360118803170e-03
    Z_652_0_3  constraint1_6520  1
    Z_652_0_3  constraint2_6523  1
    Z_652_0_4  OBJ       -3.5760620805453391e-03
    Z_652_0_4  constraint1_6520  1
    Z_652_0_4  constraint2_6524  1
    Z_301_0_0  OBJ       -5.2714534835118232e-03
    Z_301_0_0  constraint1_3010  1
    Z_301_0_0  constraint2_3010  1
    Z_301_0_1  OBJ       -4.1979065134299387e-03
    Z_301_0_1  constraint1_3010  1
    Z_301_0_1  constraint2_3011  1
    Z_301_0_2  OBJ       -3.4720570890116975e-01
    Z_301_0_2  constraint1_3010  1
    Z_301_0_2  constraint2_3012  1
    Z_301_0_3  OBJ       -7.9501435338840132e-03
    Z_301_0_3  constraint1_3010  1
    Z_301_0_3  constraint2_3013  1
    Z_301_0_4  OBJ       -7.8658431015437014e-03
    Z_301_0_4  constraint1_3010  1
    Z_301_0_4  constraint2_3014  1
    MARKER    'MARKER'                 'INTEND'
RHS
    RHS1      constraint1_6520  1
    RHS1      constraint1_3010  1
    RHS1      constraint2_6520  1
    RHS1      constraint2_6521  1
    RHS1      constraint2_6522  1
    RHS1      constraint2_6523  1
    RHS1      constraint2_6524  1
    RHS1      constraint2_3010  1
    RHS1      constraint2_3011  1
    RHS1      constraint2_3012  1
    RHS1      constraint2_3013  1
    RHS1      constraint2_3014  1
BOUNDS
 UP BND1      Z_652_0_0  1
 UP BND1      Z_652_0_1  1
 UP BND1      Z_652_0_2  1
 UP BND1      Z_652_0_3  1
 UP BND1      Z_652_0_4  1
 UP BND1      Z_301_0_0  1
 UP BND1      Z_301_0_1  1
 UP BND1      Z_301_0_2  1
 UP BND1      Z_301_0_3  1
 UP BND1      Z_301_0_4  1
ENDATA
