ilp_joint_2/output/regeneration_ilp.sol
# Solution for model regeneration_srl_ilp
# Objective value = 8.2513803863020985e-01
Z_652_0_0 0
Z_652_0_1 0
Z_652_0_2 1
Z_652_0_3 0
Z_652_0_4 0
Z_301_0_0 0
Z_301_0_1 0
Z_301_0_2 1
Z_301_0_3 0
Z_301_0_4 0
